NAME : rand383166
COMMENT: random generated with id 383166
TYPE : TSP
DIMENSION : 6
EDGE_WEIGHT_TYPE : EUC_2D
NODE_COORD_SECTION
1 0.220289 1.834454
2 0.134777 2.784153
3 4.836335 2.001147
4 3.910969 3.848217
5 4.048679 4.338485
6 1.288674 4.968681
EOF
